
Gurobi 6.0.4 (win64) logging started 06/18/15 16:03:16

Read LP format model from file C:\MT\repository\VRPTWMS\instances\mip\freight\N8-C_DV10-C_SV50_F18_4_No_1.lp
Reading time = 0.01 seconds
(null): 417 rows, 200 columns, 1659 nonzeros
Optimize a model with 417 rows, 200 columns and 1659 nonzeros
Model has 512 quadratic constraints
Coefficient statistics:
  Matrix range    [1e+00, 1e+06]
  Objective range [2e+04, 1e+07]
  Bounds range    [1e+00, 1e+06]
  RHS range       [1e+00, 1e+06]
Presolve removed 77 rows and 37 columns
Presolve time: 0.02s
Presolved: 918 rows, 452 columns, 4955 nonzeros
Variable types: 289 continuous, 163 integer (130 binary)
Found heuristic solution: objective 7.323450e+07

Root relaxation: objective 1.494889e+07, 93 iterations, 0.00 seconds

    Nodes    |    Current Node    |     Objective Bounds      |     Work
 Expl Unexpl |  Obj  Depth IntInf | Incumbent    BestBd   Gap | It/Node Time

     0     0 1.4949e+07    0   21 7.3235e+07 1.4949e+07  79.6%     -    0s
H    0     0                    5.285380e+07 1.4949e+07  71.7%     -    0s
     0     0 2.1801e+07    0   33 5.2854e+07 2.1801e+07  58.8%     -    0s
H    0     0                    5.238690e+07 2.1801e+07  58.4%     -    0s
H    0     0                    4.225180e+07 2.1801e+07  48.4%     -    0s
     0     0 2.2053e+07    0   35 4.2252e+07 2.2053e+07  47.8%     -    0s
     0     0 2.2065e+07    0   37 4.2252e+07 2.2065e+07  47.8%     -    0s
H    0     0                    4.217270e+07 2.2065e+07  47.7%     -    0s
     0     0 2.2065e+07    0   39 4.2173e+07 2.2065e+07  47.7%     -    0s
     0     0 2.2065e+07    0   39 4.2173e+07 2.2065e+07  47.7%     -    0s
H    0     0                    4.204360e+07 2.2065e+07  47.5%     -    0s
     0     0 2.2065e+07    0   39 4.2044e+07 2.2065e+07  47.5%     -    0s
H    0     0                    4.181920e+07 2.2065e+07  47.2%     -    0s
H    0     0                    4.178790e+07 2.2065e+07  47.2%     -    0s
     0     0 2.2065e+07    0   34 4.1788e+07 2.2065e+07  47.2%     -    0s
     0     0 3.1690e+07    0   19 4.1788e+07 3.1690e+07  24.2%     -    0s
     0     0 3.1805e+07    0   22 4.1788e+07 3.1805e+07  23.9%     -    0s
     0     0 3.1825e+07    0   23 4.1788e+07 3.1825e+07  23.8%     -    0s
     0     0 3.1848e+07    0   36 4.1788e+07 3.1848e+07  23.8%     -    0s
     0     0 3.1848e+07    0   36 4.1788e+07 3.1848e+07  23.8%     -    0s
H    0     0                    4.174230e+07 3.1848e+07  23.7%     -    0s
     0     0 3.1848e+07    0   28 4.1742e+07 3.1848e+07  23.7%     -    0s
     0     2 3.1848e+07    0   28 4.1742e+07 3.1848e+07  23.7%     -    0s

Cutting planes:
  Gomory: 1
  Cover: 14
  Implied bound: 8
  Clique: 16
  MIR: 7
  GUB cover: 4

Explored 105 nodes (1091 simplex iterations) in 0.26 seconds
Thread count was 2 (of 4 available processors)

Optimal solution found (tolerance 1.00e-04)
Best objective 4.174230000000e+07, best bound 4.174230000000e+07, gap 0.0%
k_c1	39999.99999999999
k_c2	82667.0
k_c3	100000.0
k_c4	52667.0
k_c5	60000.0
k_c6	70000.0
k_c7	100000.0
k_c8	96000.0
k_dN	-0.0
o_1	0.0
o_2	0.0
o_3	0.0
o_4	0.0
o_5	0.0
o_6	0.0
o_7	0.0
o_8	0.0
p_1	0.0
p_2	0.0
p_3	0.0
p_4	0.0
p_5	0.0
p_6	0.0
p_7	0.0
p_8	0.0
phi_c1	143105.0
phi_c2	163817.0
phi_c3	123762.0
phi_c4	162318.0000000001
phi_c5	157836.0
phi_c6	8978.0
phi_c7	163944.0
phi_c8	172752.0
phi_d0	180000.0
phi_dN	-0.0
tauD_c1	805823.0
tauD_c2	591068.0
tauD_c3	448387.0
tauD_c4	767048.0
tauD_c5	700000.0
tauD_c6	600000.0
tauD_c7	250000.0
tauD_c8	637573.0
tauD_d0	-0.0
tauD_dN	1000000.0
tauS_c1	0.0
tauS_c2	0.0
tauS_c3	35658.0
tauS_c4	0.0
tauS_c5	0.0
tauS_c6	5448.0
tauS_c7	0.0
tauS_c8	0.0
tauS_d0	-0.0
tauS_dN	49950.0
x_c1_dN	1.0
x_c2_c4	1.0
x_c3_c6	1.0
x_c4_dN	1.0
x_c5_c1	1.0
x_c6_dN	1.0
x_c7_c5	1.0
x_c8_dN	1.0
x_d0_c2	1.0
x_d0_c3	1.0
x_d0_c7	1.0
x_d0_c8	1.0
